% demand
num_movements = 25;
loading_factor = [1100, 1550, 1100, 1700, 1800, 1850, 1550, 1800, 1200, 1950, 1400, 1500, 1200, 950, 1000, 1700, 1400, 1000, 900, 1300, 1400, 1250, 2000, 950, 1350];
pickup_time = [0, 0, 1, 2, 2, 2, 3, 3, 5, 5, 6, 6, 7, 7, 7, 7, 8, 9, 9, 9, 9, 10, 10, 10, 12];
delivery_time = [2, 1, 2, 5, 3, 5, 5, 5, 7, 6, 8, 7, 8, 8, 10, 8, 10, 10, 11, 11, 10, 12, 11, 12, 13];

% transporter definition
total_capacity = 7000;
num_decks = 3;
capacity = [3000, 1000, 3000];

% ways out of decks
num_ways_out = 1;
paths_out = array3d(decks, ways_out, decks, [
% ways out of deck d1
2, 3, 0, 

% ways out of deck d2
3, 0, 0, 

% ways out of deck d3
0, 0, 0,	

]);

